
--- Job M1_5_E1e.gms Start 05/19/25 18:34:22 47.5.0 d6b95593 DEX-DEG x86 64bit/macOS
--- Applying:
    /Library/Frameworks/GAMS.framework/Versions/47/Resources/gmsprmun.txt
--- GAMS Parameters defined
    Input "/Users/pm.deoliveiradejes/Dropbox (Personal)/Maestria en Energia (MISE)/MISE_E4/MISE_E4-main/M1.5_Self-Generation_Dispatch Hydrogen/Ejemplo_1_H/gams/M1_5_E1e.gms"
    PageSize 0
    ScrDir "/Users/pm.deoliveiradejes/Dropbox (Personal)/Maestria en Energia (MISE)/MISE_E4/MISE_E4-main/M1.5_Self-Generation_Dispatch Hydrogen/Ejemplo_1_H/gams/225a/"
    SysDir /Library/Frameworks/GAMS.framework/Versions/47/Resources/
    LogOption 3
    ErrMsg 1
    ErrorLog 99
    IDE 1
    LstTitleLeftAligned 1
Licensee: Academic User                                  G240823+0003Ac-GEN
          pm.deoliveiradejes@uniandes.edu.co                      CLA100108
          225a/gamslice.dat
          node:46769101 mem:16 cores:4 ipport:53253 v:2                    
          Community license for demonstration and instructional purposes only
Processor information: 1 socket(s), 4 core(s), and 8 thread(s) available
GAMS 47.5.0   Copyright (C) 1987-2024 GAMS Development. All rights reserved
--- Starting compilation
--- M1_5_E1e.gms(210) 3 Mb
--- Starting execution: elapsed 0:00:00.007
--- M1_5_E1e.gms(201) 4 Mb
--- Generating MIP model AGPE_ES_H2
--- M1_5_E1e.gms(208) 4 Mb
---   522 rows  401 columns  1,413 non-zeroes
---   166 discrete-columns
--- Range statistics (absolute non-zero finite values)
--- RHS       [min, max] : [ 1.000E+00, 9.596E+05] - Zero values observed as well
--- Bound     [min, max] : [ 1.000E+00, 1.900E+03] - Zero values observed as well
--- Matrix    [min, max] : [ 1.500E-02, 1.460E+03]
--- Executing GUROBI (Solvelink=2): elapsed 0:00:00.018

Gurobi           47.5.0 d6b95593 Aug 29, 2024          DEG x86 64bit/macOS    

*** This solver runs with a community license. No commercial use.
Gurobi library version 11.0.2
GAMS/Gurobi demo/community requires a Gurobi license from Gurobi Optimization.
Set parameter OutputFlag to value 1
Set parameter MIPGapAbs to value 0
Space for names approximately 0.01 Mb
Use option 'names no' to turn use of names off
Starting Gurobi...
Gurobi Optimizer version 11.0.2 build v11.0.2rc0 (mac64[x86] - Darwin 21.6.0 21H1320)

CPU model: Intel(R) Core(TM) i7-6700HQ CPU @ 2.60GHz
Thread count: 4 physical cores, 8 logical processors, using up to 8 threads

Optimize a model with 521 rows, 400 columns and 1409 nonzeros
Model fingerprint: 0xf70cf973
Variable types: 234 continuous, 166 integer (166 binary)
Coefficient statistics:
  Matrix range     [1e-02, 1e+03]
  Objective range  [1e+00, 1e+00]
  Bounds range     [1e+00, 2e+03]
  RHS range        [1e+00, 1e+06]
Presolve removed 272 rows and 151 columns
Presolve time: 0.01s
Presolved: 249 rows, 249 columns, 743 nonzeros
Variable types: 136 continuous, 113 integer (113 binary)
Found heuristic solution: objective -49966.89786

Root relaxation: objective -1.663017e+04, 60 iterations, 0.00 seconds (0.00 work units)

    Nodes    |    Current Node    |     Objective Bounds      |     Work
 Expl Unexpl |  Obj  Depth IntInf | Incumbent    BestBd   Gap | It/Node Time

     0     0 -16630.173    0    5 -49966.898 -16630.173  66.7%     -    0s
H    0     0                    -16901.93301 -16630.173  1.61%     -    0s
H    0     0                    -16698.97264 -16630.173  0.41%     -    0s
H    0     0                    -16673.95504 -16630.173  0.26%     -    0s
H    0     0                    -16662.38927 -16630.173  0.19%     -    0s
H    0     0                    -16651.90845 -16630.173  0.13%     -    0s

Cutting planes:
  Gomory: 1
  MIR: 2
  Flow cover: 2
  Relax-and-lift: 3

Explored 1 nodes (60 simplex iterations) in 0.02 seconds (0.01 work units)
Thread count was 8 (of 8 available processors)

Solution count 6: -16651.9 -16662.4 -16674 ... -49966.9
No other solutions better than -16651.9

Optimal solution found (tolerance 1.00e-04)
Best objective -1.665190845394e+04, best bound -1.665190845394e+04, gap 0.0000%

User-callback calls 569, time in user-callback 0.00 sec
MIP status(2): Model was solved to optimality (subject to tolerances).

Solving fixed MIP.
Gurobi Optimizer version 11.0.2 build v11.0.2rc0 (mac64[x86] - Darwin 21.6.0 21H1320)

CPU model: Intel(R) Core(TM) i7-6700HQ CPU @ 2.60GHz
Thread count: 4 physical cores, 8 logical processors, using up to 8 threads

Optimize a model with 521 rows, 400 columns and 1409 nonzeros
Model fingerprint: 0x5b42f990
Coefficient statistics:
  Matrix range     [1e-02, 1e+03]
  Objective range  [1e+00, 1e+00]
  Bounds range     [1e+00, 2e+03]
  RHS range        [1e+00, 1e+06]
Presolve removed 501 rows and 349 columns
Presolve time: 0.00s
Presolved: 20 rows, 51 columns, 70 nonzeros

Iteration    Objective       Primal Inf.    Dual Inf.      Time
       0    9.1066414e+04   6.672572e+02   0.000000e+00      0s
      23   -1.6651908e+04   0.000000e+00   0.000000e+00      0s

Solved in 23 iterations and 0.00 seconds (0.00 work units)
Optimal objective -1.665190845e+04

User-callback calls 673, time in user-callback 0.00 sec
Fixed MIP status(2): Model was solved to optimality (subject to tolerances).

MIP   Solution:     -16651.908454    (60 iterations, 1 nodes)
Final Solve:        -16651.908454    (23 iterations)

Best possible:      -16651.908454
Absolute gap:            0.000000
Relative gap:            0.000000

--- Reading solution for model AGPE_ES_H2
--- Executing after solve: elapsed 0:00:00.113
--- M1_5_E1e.gms(210) 4 Mb
--- GDX File (execute_unload) /Users/pm.deoliveiradejes/Dropbox (Personal)/Maestria en Energia (MISE)/MISE_E4/MISE_E4-main/M1.5_Self-Generation_Dispatch Hydrogen/Ejemplo_1_H/gams/Results_M1_5_E1e.gdx
*** Status: Normal completion
--- Job M1_5_E1e.gms Stop 05/19/25 18:34:22 elapsed 0:00:00.116
